data/tax1D.nl
g3 0 1 0	# problem tax1D
 24 133 1 0 0	# vars, constraints, objectives, ranges, eqns
 132 1	# nonlinear constraints, objectives
 0 0	# network constraints: nonlinear, linear
 24 24 24	# nonlinear vars in constraints, objectives, both
 0 0 0 1	# linear network variables; functions; arith, flags
 0 0 0 0 0	# discrete variables: binary, integer, nonlinear (b,c,o)
 552 24	# nonzeros in Jacobian, gradients
 0 0	# max name lengths: constraints, variables
 0 0 0 0 0	# common exprs: b,c,o,c1,o1
b
2 1e-05
2 1e-05
2 1e-05
2 1e-05
2 1e-05
2 1e-05
2 1e-05
2 1e-05
2 1e-05
2 1e-05
2 1e-05
2 1e-05
2 1e-05
2 1e-05
2 1e-05
2 1e-05
2 1e-05
2 1e-05
2 1e-05
2 1e-05
2 1e-05
2 1e-05
2 1e-05
2 1e-05
x24
0 6.3
1 8.05
2 10.2
3 12.9
4 16.3
5 20.7
6 26.2
7 33.1
8 41.9
9 53
10 67.15
11 85
12 6.3
13 8.05
14 10.2
15 12.9
16 16.3
17 20.7
18 26.2
19 33.1
20 41.9
21 53
22 67.15
23 85
r
2 0
2 0
2 0
2 0
2 0
2 0
2 0
2 0
2 0
2 0
2 0
2 0
2 0
2 0
2 0
2 0
2 0
2 0
2 0
2 0
2 0
2 0
2 0
2 0
2 0
2 0
2 0
2 0
2 0
2 0
2 0
2 0
2 0
2 0
2 0
2 0
2 0
2 0
2 0
2 0
2 0
2 0
2 0
2 0
2 0
2 0
2 0
2 0
2 0
2 0
2 0
2 0
2 0
2 0
2 0
2 0
2 0
2 0
2 0
2 0
2 0
2 0
2 0
2 0
2 0
2 0
2 0
2 0
2 0
2 0
2 0
2 0
2 0
2 0
2 0
2 0
2 0
2 0
2 0
2 0
2 0
2 0
2 0
2 0
2 0
2 0
2 0
2 0
2 0
2 0
2 0
2 0
2 0
2 0
2 0
2 0
2 0
2 0
2 0
2 0
2 0
2 0
2 0
2 0
2 0
2 0
2 0
2 0
2 0
2 0
2 0
2 0
2 0
2 0
2 0
2 0
2 0
2 0
2 0
2 0
2 0
2 0
2 0
2 0
2 0
2 0
2 0
2 0
2 0
2 0
2 0
2 0
2 0
C0
o54
4
o43
v12
o2
n-0.5
o5
o3
v0
n6.3
n2
o16
o43
v13
o2
n0.5
o5
o3
v1
n6.3
n2
C1
o54
4
o43
v12
o2
n-0.5
o5
o3
v0
n6.3
n2
o16
o43
v14
o2
n0.5
o5
o3
v2
n6.3
n2
C2
o54
4
o43
v12
o2
n-0.5
o5
o3
v0
n6.3
n2
o16
o43
v15
o2
n0.5
o5
o3
v3
n6.3
n2
C3
o54
4
o43
v12
o2
n-0.5
o5
o3
v0
n6.3
n2
o16
o43
v16
o2
n0.5
o5
o3
v4
n6.3
n2
C4
o54
4
o43
v12
o2
n-0.5
o5
o3
v0
n6.3
n2
o16
o43
v17
o2
n0.5
o5
o3
v5
n6.3
n2
C5
o54
4
o43
v12
o2
n-0.5
o5
o3
v0
n6.3
n2
o16
o43
v18
o2
n0.5
o5
o3
v6
n6.3
n2
C6
o54
4
o43
v12
o2
n-0.5
o5
o3
v0
n6.3
n2
o16
o43
v19
o2
n0.5
o5
o3
v7
n6.3
n2
C7
o54
4
o43
v12
o2
n-0.5
o5
o3
v0
n6.3
n2
o16
o43
v20
o2
n0.5
o5
o3
v8
n6.3
n2
C8
o54
4
o43
v12
o2
n-0.5
o5
o3
v0
n6.3
n2
o16
o43
v21
o2
n0.5
o5
o3
v9
n6.3
n2
C9
o54
4
o43
v12
o2
n-0.5
o5
o3
v0
n6.3
n2
o16
o43
v22
o2
n0.5
o5
o3
v10
n6.3
n2
C10
o54
4
o43
v12
o2
n-0.5
o5
o3
v0
n6.3
n2
o16
o43
v23
o2
n0.5
o5
o3
v11
n6.3
n2
C11
o54
4
o43
v13
o2
n-0.5
o5
o3
v1
n8.05
n2
o16
o43
v12
o2
n0.5
o5
o3
v0
n8.05
n2
C12
o54
4
o43
v13
o2
n-0.5
o5
o3
v1
n8.05
n2
o16
o43
v14
o2
n0.5
o5
o3
v2
n8.05
n2
C13
o54
4
o43
v13
o2
n-0.5
o5
o3
v1
n8.05
n2
o16
o43
v15
o2
n0.5
o5
o3
v3
n8.05
n2
C14
o54
4
o43
v13
o2
n-0.5
o5
o3
v1
n8.05
n2
o16
o43
v16
o2
n0.5
o5
o3
v4
n8.05
n2
C15
o54
4
o43
v13
o2
n-0.5
o5
o3
v1
n8.05
n2
o16
o43
v17
o2
n0.5
o5
o3
v5
n8.05
n2
C16
o54
4
o43
v13
o2
n-0.5
o5
o3
v1
n8.05
n2
o16
o43
v18
o2
n0.5
o5
o3
v6
n8.05
n2
C17
o54
4
o43
v13
o2
n-0.5
o5
o3
v1
n8.05
n2
o16
o43
v19
o2
n0.5
o5
o3
v7
n8.05
n2
C18
o54
4
o43
v13
o2
n-0.5
o5
o3
v1
n8.05
n2
o16
o43
v20
o2
n0.5
o5
o3
v8
n8.05
n2
C19
o54
4
o43
v13
o2
n-0.5
o5
o3
v1
n8.05
n2
o16
o43
v21
o2
n0.5
o5
o3
v9
n8.05
n2
C20
o54
4
o43
v13
o2
n-0.5
o5
o3
v1
n8.05
n2
o16
o43
v22
o2
n0.5
o5
o3
v10
n8.05
n2
C21
o54
4
o43
v13
o2
n-0.5
o5
o3
v1
n8.05
n2
o16
o43
v23
o2
n0.5
o5
o3
v11
n8.05
n2
C22
o54
4
o43
v14
o2
n-0.5
o5
o3
v2
n10.2
n2
o16
o43
v12
o2
n0.5
o5
o3
v0
n10.2
n2
C23
o54
4
o43
v14
o2
n-0.5
o5
o3
v2
n10.2
n2
o16
o43
v13
o2
n0.5
o5
o3
v1
n10.2
n2
C24
o54
4
o43
v14
o2
n-0.5
o5
o3
v2
n10.2
n2
o16
o43
v15
o2
n0.5
o5
o3
v3
n10.2
n2
C25
o54
4
o43
v14
o2
n-0.5
o5
o3
v2
n10.2
n2
o16
o43
v16
o2
n0.5
o5
o3
v4
n10.2
n2
C26
o54
4
o43
v14
o2
n-0.5
o5
o3
v2
n10.2
n2
o16
o43
v17
o2
n0.5
o5
o3
v5
n10.2
n2
C27
o54
4
o43
v14
o2
n-0.5
o5
o3
v2
n10.2
n2
o16
o43
v18
o2
n0.5
o5
o3
v6
n10.2
n2
C28
o54
4
o43
v14
o2
n-0.5
o5
o3
v2
n10.2
n2
o16
o43
v19
o2
n0.5
o5
o3
v7
n10.2
n2
C29
o54
4
o43
v14
o2
n-0.5
o5
o3
v2
n10.2
n2
o16
o43
v20
o2
n0.5
o5
o3
v8
n10.2
n2
C30
o54
4
o43
v14
o2
n-0.5
o5
o3
v2
n10.2
n2
o16
o43
v21
o2
n0.5
o5
o3
v9
n10.2
n2
C31
o54
4
o43
v14
o2
n-0.5
o5
o3
v2
n10.2
n2
o16
o43
v22
o2
n0.5
o5
o3
v10
n10.2
n2
C32
o54
4
o43
v14
o2
n-0.5
o5
o3
v2
n10.2
n2
o16
o43
v23
o2
n0.5
o5
o3
v11
n10.2
n2
C33
o54
4
o43
v15
o2
n-0.5
o5
o3
v3
n12.9
n2
o16
o43
v12
o2
n0.5
o5
o3
v0
n12.9
n2
C34
o54
4
o43
v15
o2
n-0.5
o5
o3
v3
n12.9
n2
o16
o43
v13
o2
n0.5
o5
o3
v1
n12.9
n2
C35
o54
4
o43
v15
o2
n-0.5
o5
o3
v3
n12.9
n2
o16
o43
v14
o2
n0.5
o5
o3
v2
n12.9
n2
C36
o54
4
o43
v15
o2
n-0.5
o5
o3
v3
n12.9
n2
o16
o43
v16
o2
n0.5
o5
o3
v4
n12.9
n2
C37
o54
4
o43
v15
o2
n-0.5
o5
o3
v3
n12.9
n2
o16
o43
v17
o2
n0.5
o5
o3
v5
n12.9
n2
C38
o54
4
o43
v15
o2
n-0.5
o5
o3
v3
n12.9
n2
o16
o43
v18
o2
n0.5
o5
o3
v6
n12.9
n2
C39
o54
4
o43
v15
o2
n-0.5
o5
o3
v3
n12.9
n2
o16
o43
v19
o2
n0.5
o5
o3
v7
n12.9
n2
C40
o54
4
o43
v15
o2
n-0.5
o5
o3
v3
n12.9
n2
o16
o43
v20
o2
n0.5
o5
o3
v8
n12.9
n2
C41
o54
4
o43
v15
o2
n-0.5
o5
o3
v3
n12.9
n2
o16
o43
v21
o2
n0.5
o5
o3
v9
n12.9
n2
C42
o54
4
o43
v15
o2
n-0.5
o5
o3
v3
n12.9
n2
o16
o43
v22
o2
n0.5
o5
o3
v10
n12.9
n2
C43
o54
4
o43
v15
o2
n-0.5
o5
o3
v3
n12.9
n2
o16
o43
v23
o2
n0.5
o5
o3
v11
n12.9
n2
C44
o54
4
o43
v16
o2
n-0.5
o5
o3
v4
n16.3
n2
o16
o43
v12
o2
n0.5
o5
o3
v0
n16.3
n2
C45
o54
4
o43
v16
o2
n-0.5
o5
o3
v4
n16.3
n2
o16
o43
v13
o2
n0.5
o5
o3
v1
n16.3
n2
C46
o54
4
o43
v16
o2
n-0.5
o5
o3
v4
n16.3
n2
o16
o43
v14
o2
n0.5
o5
o3
v2
n16.3
n2
C47
o54
4
o43
v16
o2
n-0.5
o5
o3
v4
n16.3
n2
o16
o43
v15
o2
n0.5
o5
o3
v3
n16.3
n2
C48
o54
4
o43
v16
o2
n-0.5
o5
o3
v4
n16.3
n2
o16
o43
v17
o2
n0.5
o5
o3
v5
n16.3
n2
C49
o54
4
o43
v16
o2
n-0.5
o5
o3
v4
n16.3
n2
o16
o43
v18
o2
n0.5
o5
o3
v6
n16.3
n2
C50
o54
4
o43
v16
o2
n-0.5
o5
o3
v4
n16.3
n2
o16
o43
v19
o2
n0.5
o5
o3
v7
n16.3
n2
C51
o54
4
o43
v16
o2
n-0.5
o5
o3
v4
n16.3
n2
o16
o43
v20
o2
n0.5
o5
o3
v8
n16.3
n2
C52
o54
4
o43
v16
o2
n-0.5
o5
o3
v4
n16.3
n2
o16
o43
v21
o2
n0.5
o5
o3
v9
n16.3
n2
C53
o54
4
o43
v16
o2
n-0.5
o5
o3
v4
n16.3
n2
o16
o43
v22
o2
n0.5
o5
o3
v10
n16.3
n2
C54
o54
4
o43
v16
o2
n-0.5
o5
o3
v4
n16.3
n2
o16
o43
v23
o2
n0.5
o5
o3
v11
n16.3
n2
C55
o54
4
o43
v17
o2
n-0.5
o5
o3
v5
n20.7
n2
o16
o43
v12
o2
n0.5
o5
o3
v0
n20.7
n2
C56
o54
4
o43
v17
o2
n-0.5
o5
o3
v5
n20.7
n2
o16
o43
v13
o2
n0.5
o5
o3
v1
n20.7
n2
C57
o54
4
o43
v17
o2
n-0.5
o5
o3
v5
n20.7
n2
o16
o43
v14
o2
n0.5
o5
o3
v2
n20.7
n2
C58
o54
4
o43
v17
o2
n-0.5
o5
o3
v5
n20.7
n2
o16
o43
v15
o2
n0.5
o5
o3
v3
n20.7
n2
C59
o54
4
o43
v17
o2
n-0.5
o5
o3
v5
n20.7
n2
o16
o43
v16
o2
n0.5
o5
o3
v4
n20.7
n2
C60
o54
4
o43
v17
o2
n-0.5
o5
o3
v5
n20.7
n2
o16
o43
v18
o2
n0.5
o5
o3
v6
n20.7
n2
C61
o54
4
o43
v17
o2
n-0.5
o5
o3
v5
n20.7
n2
o16
o43
v19
o2
n0.5
o5
o3
v7
n20.7
n2
C62
o54
4
o43
v17
o2
n-0.5
o5
o3
v5
n20.7
n2
o16
o43
v20
o2
n0.5
o5
o3
v8
n20.7
n2
C63
o54
4
o43
v17
o2
n-0.5
o5
o3
v5
n20.7
n2
o16
o43
v21
o2
n0.5
o5
o3
v9
n20.7
n2
C64
o54
4
o43
v17
o2
n-0.5
o5
o3
v5
n20.7
n2
o16
o43
v22
o2
n0.5
o5
o3
v10
n20.7
n2
C65
o54
4
o43
v17
o2
n-0.5
o5
o3
v5
n20.7
n2
o16
o43
v23
o2
n0.5
o5
o3
v11
n20.7
n2
C66
o54
4
o43
v18
o2
n-0.5
o5
o3
v6
n26.2
n2
o16
o43
v12
o2
n0.5
o5
o3
v0
n26.2
n2
C67
o54
4
o43
v18
o2
n-0.5
o5
o3
v6
n26.2
n2
o16
o43
v13
o2
n0.5
o5
o3
v1
n26.2
n2
C68
o54
4
o43
v18
o2
n-0.5
o5
o3
v6
n26.2
n2
o16
o43
v14
o2
n0.5
o5
o3
v2
n26.2
n2
C69
o54
4
o43
v18
o2
n-0.5
o5
o3
v6
n26.2
n2
o16
o43
v15
o2
n0.5
o5
o3
v3
n26.2
n2
C70
o54
4
o43
v18
o2
n-0.5
o5
o3
v6
n26.2
n2
o16
o43
v16
o2
n0.5
o5
o3
v4
n26.2
n2
C71
o54
4
o43
v18
o2
n-0.5
o5
o3
v6
n26.2
n2
o16
o43
v17
o2
n0.5
o5
o3
v5
n26.2
n2
C72
o54
4
o43
v18
o2
n-0.5
o5
o3
v6
n26.2
n2
o16
o43
v19
o2
n0.5
o5
o3
v7
n26.2
n2
C73
o54
4
o43
v18
o2
n-0.5
o5
o3
v6
n26.2
n2
o16
o43
v20
o2
n0.5
o5
o3
v8
n26.2
n2
C74
o54
4
o43
v18
o2
n-0.5
o5
o3
v6
n26.2
n2
o16
o43
v21
o2
n0.5
o5
o3
v9
n26.2
n2
C75
o54
4
o43
v18
o2
n-0.5
o5
o3
v6
n26.2
n2
o16
o43
v22
o2
n0.5
o5
o3
v10
n26.2
n2
C76
o54
4
o43
v18
o2
n-0.5
o5
o3
v6
n26.2
n2
o16
o43
v23
o2
n0.5
o5
o3
v11
n26.2
n2
C77
o54
4
o43
v19
o2
n-0.5
o5
o3
v7
n33.1
n2
o16
o43
v12
o2
n0.5
o5
o3
v0
n33.1
n2
C78
o54
4
o43
v19
o2
n-0.5
o5
o3
v7
n33.1
n2
o16
o43
v13
o2
n0.5
o5
o3
v1
n33.1
n2
C79
o54
4
o43
v19
o2
n-0.5
o5
o3
v7
n33.1
n2
o16
o43
v14
o2
n0.5
o5
o3
v2
n33.1
n2
C80
o54
4
o43
v19
o2
n-0.5
o5
o3
v7
n33.1
n2
o16
o43
v15
o2
n0.5
o5
o3
v3
n33.1
n2
C81
o54
4
o43
v19
o2
n-0.5
o5
o3
v7
n33.1
n2
o16
o43
v16
o2
n0.5
o5
o3
v4
n33.1
n2
C82
o54
4
o43
v19
o2
n-0.5
o5
o3
v7
n33.1
n2
o16
o43
v17
o2
n0.5
o5
o3
v5
n33.1
n2
C83
o54
4
o43
v19
o2
n-0.5
o5
o3
v7
n33.1
n2
o16
o43
v18
o2
n0.5
o5
o3
v6
n33.1
n2
C84
o54
4
o43
v19
o2
n-0.5
o5
o3
v7
n33.1
n2
o16
o43
v20
o2
n0.5
o5
o3
v8
n33.1
n2
C85
o54
4
o43
v19
o2
n-0.5
o5
o3
v7
n33.1
n2
o16
o43
v21
o2
n0.5
o5
o3
v9
n33.1
n2
C86
o54
4
o43
v19
o2
n-0.5
o5
o3
v7
n33.1
n2
o16
o43
v22
o2
n0.5
o5
o3
v10
n33.1
n2
C87
o54
4
o43
v19
o2
n-0.5
o5
o3
v7
n33.1
n2
o16
o43
v23
o2
n0.5
o5
o3
v11
n33.1
n2
C88
o54
4
o43
v20
o2
n-0.5
o5
o3
v8
n41.9
n2
o16
o43
v12
o2
n0.5
o5
o3
v0
n41.9
n2
C89
o54
4
o43
v20
o2
n-0.5
o5
o3
v8
n41.9
n2
o16
o43
v13
o2
n0.5
o5
o3
v1
n41.9
n2
C90
o54
4
o43
v20
o2
n-0.5
o5
o3
v8
n41.9
n2
o16
o43
v14
o2
n0.5
o5
o3
v2
n41.9
n2
C91
o54
4
o43
v20
o2
n-0.5
o5
o3
v8
n41.9
n2
o16
o43
v15
o2
n0.5
o5
o3
v3
n41.9
n2
C92
o54
4
o43
v20
o2
n-0.5
o5
o3
v8
n41.9
n2
o16
o43
v16
o2
n0.5
o5
o3
v4
n41.9
n2
C93
o54
4
o43
v20
o2
n-0.5
o5
o3
v8
n41.9
n2
o16
o43
v17
o2
n0.5
o5
o3
v5
n41.9
n2
C94
o54
4
o43
v20
o2
n-0.5
o5
o3
v8
n41.9
n2
o16
o43
v18
o2
n0.5
o5
o3
v6
n41.9
n2
C95
o54
4
o43
v20
o2
n-0.5
o5
o3
v8
n41.9
n2
o16
o43
v19
o2
n0.5
o5
o3
v7
n41.9
n2
C96
o54
4
o43
v20
o2
n-0.5
o5
o3
v8
n41.9
n2
o16
o43
v21
o2
n0.5
o5
o3
v9
n41.9
n2
C97
o54
4
o43
v20
o2
n-0.5
o5
o3
v8
n41.9
n2
o16
o43
v22
o2
n0.5
o5
o3
v10
n41.9
n2
C98
o54
4
o43
v20
o2
n-0.5
o5
o3
v8
n41.9
n2
o16
o43
v23
o2
n0.5
o5
o3
v11
n41.9
n2
C99
o54
4
o43
v21
o2
n-0.5
o5
o3
v9
n53
n2
o16
o43
v12
o2
n0.5
o5
o3
v0
n53
n2
C100
o54
4
o43
v21
o2
n-0.5
o5
o3
v9
n53
n2
o16
o43
v13
o2
n0.5
o5
o3
v1
n53
n2
C101
o54
4
o43
v21
o2
n-0.5
o5
o3
v9
n53
n2
o16
o43
v14
o2
n0.5
o5
o3
v2
n53
n2
C102
o54
4
o43
v21
o2
n-0.5
o5
o3
v9
n53
n2
o16
o43
v15
o2
n0.5
o5
o3
v3
n53
n2
C103
o54
4
o43
v21
o2
n-0.5
o5
o3
v9
n53
n2
o16
o43
v16
o2
n0.5
o5
o3
v4
n53
n2
C104
o54
4
o43
v21
o2
n-0.5
o5
o3
v9
n53
n2
o16
o43
v17
o2
n0.5
o5
o3
v5
n53
n2
C105
o54
4
o43
v21
o2
n-0.5
o5
o3
v9
n53
n2
o16
o43
v18
o2
n0.5
o5
o3
v6
n53
n2
C106
o54
4
o43
v21
o2
n-0.5
o5
o3
v9
n53
n2
o16
o43
v19
o2
n0.5
o5
o3
v7
n53
n2
C107
o54
4
o43
v21
o2
n-0.5
o5
o3
v9
n53
n2
o16
o43
v20
o2
n0.5
o5
o3
v8
n53
n2
C108
o54
4
o43
v21
o2
n-0.5
o5
o3
v9
n53
n2
o16
o43
v22
o2
n0.5
o5
o3
v10
n53
n2
C109
o54
4
o43
v21
o2
n-0.5
o5
o3
v9
n53
n2
o16
o43
v23
o2
n0.5
o5
o3
v11
n53
n2
C110
o54
4
o43
v22
o2
n-0.5
o5
o3
v10
n67.15
n2
o16
o43
v12
o2
n0.5
o5
o3
v0
n67.15
n2
C111
o54
4
o43
v22
o2
n-0.5
o5
o3
v10
n67.15
n2
o16
o43
v13
o2
n0.5
o5
o3
v1
n67.15
n2
C112
o54
4
o43
v22
o2
n-0.5
o5
o3
v10
n67.15
n2
o16
o43
v14
o2
n0.5
o5
o3
v2
n67.15
n2
C113
o54
4
o43
v22
o2
n-0.5
o5
o3
v10
n67.15
n2
o16
o43
v15
o2
n0.5
o5
o3
v3
n67.15
n2
C114
o54
4
o43
v22
o2
n-0.5
o5
o3
v10
n67.15
n2
o16
o43
v16
o2
n0.5
o5
o3
v4
n67.15
n2
C115
o54
4
o43
v22
o2
n-0.5
o5
o3
v10
n67.15
n2
o16
o43
v17
o2
n0.5
o5
o3
v5
n67.15
n2
C116
o54
4
o43
v22
o2
n-0.5
o5
o3
v10
n67.15
n2
o16
o43
v18
o2
n0.5
o5
o3
v6
n67.15
n2
C117
o54
4
o43
v22
o2
n-0.5
o5
o3
v10
n67.15
n2
o16
o43
v19
o2
n0.5
o5
o3
v7
n67.15
n2
C118
o54
4
o43
v22
o2
n-0.5
o5
o3
v10
n67.15
n2
o16
o43
v20
o2
n0.5
o5
o3
v8
n67.15
n2
C119
o54
4
o43
v22
o2
n-0.5
o5
o3
v10
n67.15
n2
o16
o43
v21
o2
n0.5
o5
o3
v9
n67.15
n2
C120
o54
4
o43
v22
o2
n-0.5
o5
o3
v10
n67.15
n2
o16
o43
v23
o2
n0.5
o5
o3
v11
n67.15
n2
C121
o54
4
o43
v23
o2
n-0.5
o5
o3
v11
n85
n2
o16
o43
v12
o2
n0.5
o5
o3
v0
n85
n2
C122
o54
4
o43
v23
o2
n-0.5
o5
o3
v11
n85
n2
o16
o43
v13
o2
n0.5
o5
o3
v1
n85
n2
C123
o54
4
o43
v23
o2
n-0.5
o5
o3
v11
n85
n2
o16
o43
v14
o2
n0.5
o5
o3
v2
n85
n2
C124
o54
4
o43
v23
o2
n-0.5
o5
o3
v11
n85
n2
o16
o43
v15
o2
n0.5
o5
o3
v3
n85
n2
C125
o54
4
o43
v23
o2
n-0.5
o5
o3
v11
n85
n2
o16
o43
v16
o2
n0.5
o5
o3
v4
n85
n2
C126
o54
4
o43
v23
o2
n-0.5
o5
o3
v11
n85
n2
o16
o43
v17
o2
n0.5
o5
o3
v5
n85
n2
C127
o54
4
o43
v23
o2
n-0.5
o5
o3
v11
n85
n2
o16
o43
v18
o2
n0.5
o5
o3
v6
n85
n2
C128
o54
4
o43
v23
o2
n-0.5
o5
o3
v11
n85
n2
o16
o43
v19
o2
n0.5
o5
o3
v7
n85
n2
C129
o54
4
o43
v23
o2
n-0.5
o5
o3
v11
n85
n2
o16
o43
v20
o2
n0.5
o5
o3
v8
n85
n2
C130
o54
4
o43
v23
o2
n-0.5
o5
o3
v11
n85
n2
o16
o43
v21
o2
n0.5
o5
o3
v9
n85
n2
C131
o54
4
o43
v23
o2
n-0.5
o5
o3
v11
n85
n2
o16
o43
v22
o2
n0.5
o5
o3
v10
n85
n2
C132
n0
O0 0
o54
24
o2
n-26
o43
v12
o2
n13
o5
o3
v0
n6.3
n2
o2
n-40
o43
v13
o2
n20
o5
o3
v1
n8.05
n2
o2
n-49
o43
v14
o2
n24.5
o5
o3
v2
n10.2
n2
o2
n-46
o43
v15
o2
n23
o5
o3
v3
n12.9
n2
o2
n-45
o43
v16
o2
n22.5
o5
o3
v4
n16.3
n2
o2
n-41
o43
v17
o2
n20.5
o5
o3
v5
n20.7
n2
o2
n-35
o43
v18
o2
n17.5
o5
o3
v6
n26.2
n2
o2
n-22
o43
v19
o2
n11
o5
o3
v7
n33.1
n2
o2
n-14
o43
v20
o2
n7
o5
o3
v8
n41.9
n2
o2
n-7
o43
v21
o2
n3.5
o5
o3
v9
n53
n2
o2
n-3
o43
v22
o2
n1.5
o5
o3
v10
n67.15
n2
o2
n-2
o43
v23
o5
o3
v11
n85
n2
k23
23
46
69
92
115
138
161
184
207
230
253
276
299
322
345
368
391
414
437
460
483
506
529
J0 4
0 0
1 0
12 0
13 0
J1 4
0 0
2 0
12 0
14 0
J2 4
0 0
3 0
12 0
15 0
J3 4
0 0
4 0
12 0
16 0
J4 4
0 0
5 0
12 0
17 0
J5 4
0 0
6 0
12 0
18 0
J6 4
0 0
7 0
12 0
19 0
J7 4
0 0
8 0
12 0
20 0
J8 4
0 0
9 0
12 0
21 0
J9 4
0 0
10 0
12 0
22 0
J10 4
0 0
11 0
12 0
23 0
J11 4
0 0
1 0
12 0
13 0
J12 4
1 0
2 0
13 0
14 0
J13 4
1 0
3 0
13 0
15 0
J14 4
1 0
4 0
13 0
16 0
J15 4
1 0
5 0
13 0
17 0
J16 4
1 0
6 0
13 0
18 0
J17 4
1 0
7 0
13 0
19 0
J18 4
1 0
8 0
13 0
20 0
J19 4
1 0
9 0
13 0
21 0
J20 4
1 0
10 0
13 0
22 0
J21 4
1 0
11 0
13 0
23 0
J22 4
0 0
2 0
12 0
14 0
J23 4
1 0
2 0
13 0
14 0
J24 4
2 0
3 0
14 0
15 0
J25 4
2 0
4 0
14 0
16 0
J26 4
2 0
5 0
14 0
17 0
J27 4
2 0
6 0
14 0
18 0
J28 4
2 0
7 0
14 0
19 0
J29 4
2 0
8 0
14 0
20 0
J30 4
2 0
9 0
14 0
21 0
J31 4
2 0
10 0
14 0
22 0
J32 4
2 0
11 0
14 0
23 0
J33 4
0 0
3 0
12 0
15 0
J34 4
1 0
3 0
13 0
15 0
J35 4
2 0
3 0
14 0
15 0
J36 4
3 0
4 0
15 0
16 0
J37 4
3 0
5 0
15 0
17 0
J38 4
3 0
6 0
15 0
18 0
J39 4
3 0
7 0
15 0
19 0
J40 4
3 0
8 0
15 0
20 0
J41 4
3 0
9 0
15 0
21 0
J42 4
3 0
10 0
15 0
22 0
J43 4
3 0
11 0
15 0
23 0
J44 4
0 0
4 0
12 0
16 0
J45 4
1 0
4 0
13 0
16 0
J46 4
2 0
4 0
14 0
16 0
J47 4
3 0
4 0
15 0
16 0
J48 4
4 0
5 0
16 0
17 0
J49 4
4 0
6 0
16 0
18 0
J50 4
4 0
7 0
16 0
19 0
J51 4
4 0
8 0
16 0
20 0
J52 4
4 0
9 0
16 0
21 0
J53 4
4 0
10 0
16 0
22 0
J54 4
4 0
11 0
16 0
23 0
J55 4
0 0
5 0
12 0
17 0
J56 4
1 0
5 0
13 0
17 0
J57 4
2 0
5 0
14 0
17 0
J58 4
3 0
5 0
15 0
17 0
J59 4
4 0
5 0
16 0
17 0
J60 4
5 0
6 0
17 0
18 0
J61 4
5 0
7 0
17 0
19 0
J62 4
5 0
8 0
17 0
20 0
J63 4
5 0
9 0
17 0
21 0
J64 4
5 0
10 0
17 0
22 0
J65 4
5 0
11 0
17 0
23 0
J66 4
0 0
6 0
12 0
18 0
J67 4
1 0
6 0
13 0
18 0
J68 4
2 0
6 0
14 0
18 0
J69 4
3 0
6 0
15 0
18 0
J70 4
4 0
6 0
16 0
18 0
J71 4
5 0
6 0
17 0
18 0
J72 4
6 0
7 0
18 0
19 0
J73 4
6 0
8 0
18 0
20 0
J74 4
6 0
9 0
18 0
21 0
J75 4
6 0
10 0
18 0
22 0
J76 4
6 0
11 0
18 0
23 0
J77 4
0 0
7 0
12 0
19 0
J78 4
1 0
7 0
13 0
19 0
J79 4
2 0
7 0
14 0
19 0
J80 4
3 0
7 0
15 0
19 0
J81 4
4 0
7 0
16 0
19 0
J82 4
5 0
7 0
17 0
19 0
J83 4
6 0
7 0
18 0
19 0
J84 4
7 0
8 0
19 0
20 0
J85 4
7 0
9 0
19 0
21 0
J86 4
7 0
10 0
19 0
22 0
J87 4
7 0
11 0
19 0
23 0
J88 4
0 0
8 0
12 0
20 0
J89 4
1 0
8 0
13 0
20 0
J90 4
2 0
8 0
14 0
20 0
J91 4
3 0
8 0
15 0
20 0
J92 4
4 0
8 0
16 0
20 0
J93 4
5 0
8 0
17 0
20 0
J94 4
6 0
8 0
18 0
20 0
J95 4
7 0
8 0
19 0
20 0
J96 4
8 0
9 0
20 0
21 0
J97 4
8 0
10 0
20 0
22 0
J98 4
8 0
11 0
20 0
23 0
J99 4
0 0
9 0
12 0
21 0
J100 4
1 0
9 0
13 0
21 0
J101 4
2 0
9 0
14 0
21 0
J102 4
3 0
9 0
15 0
21 0
J103 4
4 0
9 0
16 0
21 0
J104 4
5 0
9 0
17 0
21 0
J105 4
6 0
9 0
18 0
21 0
J106 4
7 0
9 0
19 0
21 0
J107 4
8 0
9 0
20 0
21 0
J108 4
9 0
10 0
21 0
22 0
J109 4
9 0
11 0
21 0
23 0
J110 4
0 0
10 0
12 0
22 0
J111 4
1 0
10 0
13 0
22 0
J112 4
2 0
10 0
14 0
22 0
J113 4
3 0
10 0
15 0
22 0
J114 4
4 0
10 0
16 0
22 0
J115 4
5 0
10 0
17 0
22 0
J116 4
6 0
10 0
18 0
22 0
J117 4
7 0
10 0
19 0
22 0
J118 4
8 0
10 0
20 0
22 0
J119 4
9 0
10 0
21 0
22 0
J120 4
10 0
11 0
22 0
23 0
J121 4
0 0
11 0
12 0
23 0
J122 4
1 0
11 0
13 0
23 0
J123 4
2 0
11 0
14 0
23 0
J124 4
3 0
11 0
15 0
23 0
J125 4
4 0
11 0
16 0
23 0
J126 4
5 0
11 0
17 0
23 0
J127 4
6 0
11 0
18 0
23 0
J128 4
7 0
11 0
19 0
23 0
J129 4
8 0
11 0
20 0
23 0
J130 4
9 0
11 0
21 0
23 0
J131 4
10 0
11 0
22 0
23 0
J132 24
0 26
1 40
2 49
3 46
4 45
5 41
6 35
7 22
8 14
9 7
10 3
11 2
12 -26
13 -40
14 -49
15 -46
16 -45
17 -41
18 -35
19 -22
20 -14
21 -7
22 -3
23 -2
G0 24
0 0
1 0
2 0
3 0
4 0
5 0
6 0
7 0
8 0
9 0
10 0
11 0
12 0
13 0
14 0
15 0
16 0
17 0
18 0
19 0
20 0
21 0
22 0
23 0
